15
1 0 5
2 0 10
2 1 3
3 0 1
3 1 6
3 2 6
4 0 11
4 1 6
4 2 6
4 3 8
5 0 6
5 1 8
5 2 6
5 3 2
5 4 5
6 0 7
6 1 3
6 2 2
6 3 10
6 4 1
6 5 5
7 0 4
7 1 2
7 2 6
7 3 2
7 4 12
7 5 5
7 6 3
8 0 4
8 1 9
8 2 3
8 3 2
8 4 5
8 5 2
8 6 3
8 7 4
9 0 4
9 1 10
9 2 8
9 3 8
9 4 4
9 5 5
9 6 1
9 7 12
9 8 9
10 0 9
10 1 6
10 2 3
10 3 11
10 4 8
10 5 8
10 6 2
10 7 11
10 8 3
10 9 7
11 0 8
11 1 10
11 2 2
11 3 12
11 4 11
11 5 9
11 6 12
11 7 11
11 8 2
11 9 6
11 10 10
12 0 8
12 1 11
12 2 2
12 3 11
12 4 4
12 5 5
12 6 6
12 7 1
12 8 10
12 9 1
12 10 8
12 11 5
13 0 3
13 1 8
13 2 9
13 3 9
13 4 11
13 5 8
13 6 11
13 7 3
13 8 6
13 9 5
13 10 9
13 11 12
13 12 5
14 0 5
14 1 12
14 2 9
14 3 5
14 4 12
14 5 9
14 6 11
14 7 8
14 8 8
14 9 9
14 10 4
14 11 8
14 12 9
14 13 1
